(set-logic BV) (define-fun origCir ((n183 Bool) (n253 Bool) (n250 Bool) (n178 Bool)) Bool (and (not (and n253 (and n183 n178))) (not (and n250 n178)))) (synth-fun skel ((n183 Bool) (n253 Bool) (n250 Bool) (n178 Bool)) Bool) (declare-var n183 Bool) (declare-var n253 Bool) (declare-var n250 Bool) (declare-var n178 Bool) (constraint (= (origCir n183 n253 n250 n178) (skel n183 n253 n250 n178))) (check-synth)
